2 20
822 833 
0 23 5 100 23 52 3 1
1 96 61 12 96 81 35 1
2 53 95 62 74 88 96 1
3 57 92 34 39 46 64 2
4 55 5 31 48 33 53 1
5 6 15 15 61 82 77 2
6 27 34 75 61 77 69 1
7 73 53 13 91 8 60 2
8 56 74 16 41 19 41 2
9 60 75 20 30 72 28 2
10 100 33 93 79 59 21 1
11 92 12 65 23 56 44 2
12 16 97 77 40 76 9 2
13 87 85 36 32 57 9 2
14 96 30 69 56 78 89 1
15 5 94 58 8 23 93 2
16 35 10 80 97 81 90 1
17 11 89 48 84 33 65 2
18 60 34 96 57 14 100 1
19 83 35 79 2 80 60 1
